HFSDDW
20	6	2
0	65	1	85
0	67	1	12
0	55	1	29
0	95	1	27
0	85	1	94
0	78	1	67
0	45	1	71
0	24	1	54
0	27	1	9
0	48	1	75
0	66	1	33
0	7	1	38
0	21	1	38
0	9	1	86
0	31	1	49
0	56	1	61
0	52	1	48
0	60	1	3
0	95	1	84
0	54	1	73
LBCmax: 358
RELDUE
-1	151	2	1
-1	134	9	4
-1	244	4	2
-1	327	2	9
-1	194	2	2
-1	163	6	4
-1	76	5	7
-1	342	4	4
-1	144	7	3
-1	308	9	8
-1	57	3	3
-1	117	6	5
-1	55	4	3
-1	248	5	9
-1	69	4	3
-1	150	3	6
-1	316	9	4
-1	141	5	3
-1	363	3	2
-1	95	4	3
DDW
143	159
130	138
207	281
320	334
186	202
142	184
65	87
318	366
138	150
262	354
50	64
104	130
51	59
243	253
57	81
120	180
281	351
128	154
294	432
93	97
